; benchmark generated from python API
(set-info :status unknown)
(declare-fun x1 () Real)
(assert
 (forall ((?y1 Real) )(let (($x8563 (<= (+ (* 30.0 ?y1) (* 17.0 x1)) 0.0)))
 (let (($x482 (or (not (= (+ (* 27.0 ?y1) (* (- 45.0) x1)) (- 67.0))) $x8563)))
 (let (($x2579 (forall ((?y3 Real) )(! (= (+ (+ (* (- 55.0) ?y3) (* 75.0 ?y1)) (* 33.0 x1)) 0.0) :qid k!17))
 ))
 (let (($x2436 (and $x2579 (and (>= (+ (* (- 87.0) ?y1) (* 9.0 x1)) 34.0) $x482))))
 (let (($x6217 (forall ((?y3 Real) )(! (or (<= (+ (* (- 74.0) ?y3) (* 65.0 x1)) 0.0) (= (* 96.0 ?y3) (- 3.0))) :qid k!17))
 ))
 (let (($x2601 (and (<= (+ (* 76.0 ?y1) (* (- 56.0) x1)) 51.0) (= (* (- 78.0) x1) 39.0))))
 (let (($x1229 (not (= (+ (* 50.0 ?y1) (* 16.0 x1)) 63.0))))
 (let (($x2455 (exists ((?y4 Real) )(! (= (+ (* (- 39.0) ?y4) (* 45.0 x1)) 12.0) :qid k!17))
 ))
 (let (($x6155 (or (< (+ (* 94.0 ?y1) (* (- 78.0) x1)) (- 8.0)) (>= (+ (* 24.0 ?y1) (* (- 2.0) x1)) 76.0))))
 (let (($x2490 (or (and $x6155 (< (+ (* (- 88.0) ?y1) (* 32.0 x1)) (- 44.0))) $x2455)))
 (let (($x2481 (forall ((?y3 Real) )(! (exists ((?y4 Real) )(! (let (($x2108 (and (< (+ (* (- 40.0) ?y1) (* (- 97.0) x1)) (- 59.0)) (> (+ (+ (* 82.0 ?y4) (* 27.0 ?y3)) (* 89.0 ?y1)) 95.0))))
 (let ((?x2205 (- 55.0)))
 (let (($x2469 (> (+ (+ (* (- 23.0) ?y4) (* (- 73.0) ?y3)) (* 5.0 ?y1)) ?x2205)))
 (let (($x2132 (and (and (>= (+ (* 36.0 ?y1) (* (- 17.0) x1)) 0.0) $x2469) $x2108)))
 (let ((?x10054 (+ (+ (* (- 94.0) ?y4) (* (- 17.0) ?y3)) (* (- 17.0) ?y1))))
 (let (($x8687 (= (+ (+ (* (- 81.0) ?y4) (* 33.0 ?y1)) (* 51.0 x1)) (- 60.0))))
 (let (($x1849 (< (+ (+ (* 30.0 ?y4) (* 61.0 ?y3)) (* (- 94.0) ?y1)) 49.0)))
 (or (or (or $x1849 $x8687) (<= (+ ?x10054 (* (- 47.0) x1)) 80.0)) $x2132)))))))) :qid k!17))
  :qid k!17))
 ))
 (or $x2481 (or $x2490 (or (and (and $x1229 $x2601) $x6217) $x2436)))))))))))))))
 )
(check-sat)
